46
Coordinates from ORCA-job DPP_opt_freq E -2699.873959593258
  C           2.13533422806672      0.18911844733412      0.21477348883144
  S           3.10726384713675      0.91300308485600      1.47377112933623
  C           2.87394435400269     -0.36072871577708     -0.79873380671737
  C           4.26501120829028     -0.19652320894902     -0.55877272205411
  C           4.56685578362403      0.47297042157516      0.62758206933427
  C           5.94254074102871      0.64082879736667      0.87625570871527
  C           6.72100732343037      0.09229312405086     -0.13508733655133
  S           5.71318153250296     -0.63893113868044     -1.40455456136794
  C           8.15654538333117      0.12647215923360     -0.13779915043803
  C           8.96871770904654      0.71048858158770      0.83565790878535
  C          10.33073477117556      0.53962324210330      0.47671717053642
  C          10.38250497079311     -0.18139529648663     -0.77104170324496
  N           9.00767869755787     -0.39694862998505     -1.10784467595330
  C           8.69496794843720     -1.19260522126061     -2.28942110248401
  O          11.30423789058569     -0.58385830971351     -1.48144120119254
  C          11.14262893427232      1.13563125207227      1.44307946635827
  C          12.57792617321099      1.17774308279573      1.43538153570048
  S          13.58434195371798      1.96552447170595      2.67154653232052
  C          13.35695374714631      0.60144878227399      0.43999856248420
  C          14.73195387595639      0.79462162295781      0.67360999313571
  C          15.03275287510613      1.51016135771670      1.83304470410503
  C          16.42317974931073      1.69847417784035      2.05859591739374
  C          17.16236813813171      1.11964297771015      1.06178174032090
  S          16.19178758523005      0.33873132937649     -0.16372673691623
  N          10.29078776890454      1.68799189306776      2.39632785342838
  C          10.60774413694618      2.33678760233961      3.66347351729517
  C           8.91676587449686      1.44153948769487      2.07760524463807
  O           7.99570148866451      1.82339622669469      2.80013649868566
  H           2.44218297108183     -0.85224429180561     -1.66207177122626
  H           6.37960687317201      1.13493348126743      1.73888965454667
  H           9.55578908959153     -1.07013635634155     -2.95092169989807
  H           7.82804109045618     -0.76239614560998     -2.79645370611231
  H          12.92069687366607      0.07551402503205     -0.40402672736755
  H          16.85412298587029      2.22630797241874      2.90063774625348
  H          11.44480288247764      3.02394761721373      3.51949581469389
  H           9.72768717253127      2.93811545254082      3.90333508565871
  H          18.24038376273426      1.10424042407438      0.97111996733058
  H           1.05703799509669      0.21330452885136      0.30002529491944
  C           8.49589437078453     -2.67503304118625     -1.96744028350052
  H           8.27508754453552     -3.23320702223136     -2.88419032954577
  H           9.40935672848570     -3.08436414327298     -1.52487150498632
  H           7.66873506884353     -2.82705477217927     -1.26729845364647
  C          10.87367881015316      1.33474355179116      4.78882763334390
  H          11.10240572689187      1.86555634142483      5.71976780217462
  H           9.98551892653358      0.71650917474038      4.95263664552171
  H          11.71762521698931      0.67959308177063      4.55216573735491
