63
Coordinates from ORCA-job PBDTTT-O_opt_freq E -3187.579842024595
  C           1.80736045174318      0.33230435790905     -0.89669163326872
  O           3.04170712544836     -0.38087069590298     -0.66737518534712
  C           4.13139735138627      0.38577219850331     -0.43317844249074
  O           4.12179901308394      1.59984793699194     -0.40771913139611
  C           6.57942094586862     -0.01525909505730      0.04594189900389
  F           6.93302980032415      1.26391853098118      0.14503603236149
  C           7.54052931735060     -1.06397152731616      0.21511855985414
  C           8.88947012331765     -1.12612409776749      0.47283304591825
  S           9.41173722396924     -2.76833402606735      0.54450917453265
  C           7.80870724057090     -3.40738662253309      0.20734656842613
  C           7.58807432898880     -4.82785794357097      0.11768402265786
  C           8.52358773090888     -5.81530666936446     -0.01746996539203
  C           7.97157207772294     -7.13530710516849     -0.07155954160440
  C           6.55031585968303     -7.11766843700422     -0.00545511621059
  S           5.94862463919753     -5.47608485407684      0.18520427927848
  C           4.30628035044716     -8.19139699598140      0.00321813588799
  C           3.39434072017896     -7.27189226278228     -0.44928457377847
  C           2.10183307042756     -7.76207405060339     -0.08987539769692
  C           2.29534348657261     -8.94545701153944      0.56135031758230
  C           1.38121165192635     -9.94762218243088      1.17865155625286
  O           3.63403552021611     -9.21852491473074      0.62356615938368
  C           6.44740385510977     -9.50216255034246     -0.18062446523178
  C           5.89075622077041    -10.82881377481724     -0.26334708815658
  C           6.83521844661048    -11.79651452701391     -0.35783151968569
  S           8.46643833464203    -11.17311551308708     -0.35883496628160
  C           7.86865756139527     -9.52220182801322     -0.24063715566064
  C          10.11258252839577     -8.43435846977950     -0.26157205288909
  C          10.99062490843361     -9.27523962822531     -0.89784114559793
  C          12.30501463530988     -8.80281110164156     -0.59927240395252
  C          12.15890840528274     -7.70719747024010      0.20128351610274
  C          13.11115879368416     -6.75964657593876      0.84648219702380
  O          10.82895457416150     -7.47329647960141      0.41435523648681
  C           6.92996691243742     -2.35265862087251      0.06680627441015
  S           5.21066944976485     -2.23091009610015     -0.28081274257879
  H           1.93619020613682      0.98457813467156     -1.76654239828713
  H           1.60486953689091      0.97005026345807     -0.03028454586229
  H           9.58636170624053     -0.31419642037372      0.62371950553912
  H           9.58316825126768     -5.61648690467592     -0.08726437143886
  H           3.61528896802615     -6.37317953536459     -1.00563968295906
  H           1.14794853965523     -7.29512573766954     -0.29184797524774
  H           0.35527550505031     -9.58124436855696      1.06120582568991
  H           1.57319372857329    -10.00613427806632      2.25938164325559
  H           4.82906619231362    -11.02775465828994     -0.24386780682353
  H           6.67776276124513    -12.86458961812702     -0.43221925860622
  H          10.72964391334117    -10.10603237942080     -1.53605831128727
  H          13.24152248731248     -9.22218836768466     -0.93965847245657
  H          14.12732483518921     -7.08298098128898      0.59453693209341
  H          13.01970815222257     -6.83125340150540      1.93955578640842
  C           5.75820105597418     -8.27064395835687     -0.05793971301937
  C           8.66198410547742     -8.36710044787690     -0.18937974055801
  C           5.31564816906998     -0.45453108366321     -0.21625830351756
  C           1.51937394667016    -11.35079081556857      0.56359573484896
  H           2.53517871100155    -11.73524275573048      0.70240470748319
  H           0.82381823985452    -12.05137055582578      1.03815389169041
  H           1.30771574214359    -11.32876218850918     -0.51095742056169
  C          12.89548876951139     -5.29842151076274      0.41545180472525
  H          13.00108526538206     -5.19099411156969     -0.66952758195615
  H          11.89439482385393     -4.95324832764779      0.69447939779746
  H          13.62596164230423     -4.64136439618967      0.89975768062913
  C           0.72307176901507     -0.70564230960871     -1.11239625292833
  H           0.95438551639120     -1.33584636524375     -1.97723780087424
  H           0.62154678156782     -1.34966930315417     -0.23291572792885
  H          -0.23674809701387     -0.20897228421214     -1.29169027379151
