52
Coordinates from ORCA-job PNDI2OD_1mer E -2207.643961197363
  C           3.83932834892489      1.39586998170415     -0.62465962387457
  C           3.79059183813406     -0.02760903621996     -0.62283633501877
  C           2.63108983957048     -0.72816718804915     -0.39756505336336
  C           1.42137515724134     -0.03644131586930     -0.16928133340517
  C           1.43790193330877      1.38409739625016     -0.13688524251263
  C           2.65230767039158      2.10297492590942     -0.33927157455941
  C           0.21015925357870      2.05014784951573      0.10525315562193
  C          -0.96471166499439      1.33679780255761      0.29001777345021
  C          -0.96792986522497     -0.06475599324482      0.24929097474859
  C           0.21711987829701     -0.74649820430570      0.02658064722973
  H           4.68821306731699     -0.59447436298714     -0.84137274837651
  H          -1.87699500422651      1.89528413845260      0.46796189551157
  H          -1.88014095387013     -0.63272155860973      0.39310253843867
  C           5.41998565708514      3.03528618995298     -1.82942078540395
  C           6.80107967088603      3.22782759551069     -2.04393408730370
  C           5.12823256684290      1.98997766979447     -0.98044336014342
  H           4.65465930345231      3.64112049670532     -2.29475254979694
  C           7.59855352640162      2.33671291620636     -1.35010090214224
  S           6.61360470953724      1.23804171532606     -0.42084081439325
  H           7.20678492693176      3.98769444277127     -2.70259427138621
  C           9.83236358457545      1.20194348602314     -0.89586642311588
  C          11.22453960100393      1.47126943408235     -1.00072638204815
  C           9.03888075055234      2.25128530130399     -1.31004577845792
  H           9.42365274535762      0.25999987730507     -0.54652481883507
  C          11.48772319738134      2.72067785452979     -1.49491980420628
  S          10.03175913539229      3.59893134454904     -1.82873428083703
  H          11.99770470300800      0.76185540192935     -0.72810094335861
  H          12.44909824848678      3.17939246948715     -1.68218730967721
  C           0.15595006711657      3.52618619644612      0.17451628270266
  C           2.62888697089914      3.57984561781135     -0.13113142751975
  C           0.21081223837155     -2.23114398250149     -0.00550579540115
  C           2.65888626129574     -2.21326896862920     -0.43173037709994
  N           1.37253553072548      4.19074898680540      0.02763093226853
  N           1.44562320349538     -2.86752244079207     -0.19214789918408
  O          -0.88608444569618      4.14064366516886      0.36458786660675
  O           3.63249134404701      4.27594057745502     -0.07987799326928
  O           3.68346595699231     -2.84369014870847     -0.65236048807903
  O          -0.81577423928256     -2.88195744457785      0.12960470354143
  C           1.35671614098618      5.65846845004900      0.18049958859871
  C           1.45154327092634     -4.34216309636766     -0.22793704630615
  C           1.52469277409765      6.08046172229392      1.63875128971177
  H           0.39983979660082      5.99941802662176     -0.21486416831876
  H           2.16888595685613      6.04921548276332     -0.43222970475703
  H           0.71272383932039      5.67629493723005      2.25129626937433
  H           1.50062567495425      7.17312246110388      1.71614094828920
  H           2.48302209170065      5.72858530012226      2.03198057899562
  C           1.21999914658843     -4.87553112437627     -1.64021203612360
  H           0.66352444732367     -4.67454956306379      0.44786503999539
  H           2.42168209481275     -4.66037118332881      0.15434399692357
  H           0.24893793387900     -4.54502084816045     -2.02183053766723
  H           1.23045934521054     -5.97100777683658     -1.63162376328968
  H           2.00862277343610     -4.53041547710921     -2.31598882277668
