87
Coordinates from ORCA-job D18_opt_freq E -5586.072256455226
  S       2.970530      1.273105     -2.851501
  C       3.251449      2.981235     -2.750599
  C       3.858522      3.483744     -3.871790
  C       4.097456      2.462194     -4.840782
  C       3.675605      1.209952     -4.454245
  C       3.752156     -0.035116     -5.180367
  C       3.158728     -1.241005     -4.893856
  C       3.461197     -2.256416     -5.839538
  C       4.300608     -1.812749     -6.869315
  S       4.723032     -0.136534     -6.651822
  C       3.023584     -3.624134     -5.869468
  N       2.228778     -4.210777     -4.979464
  S       2.043068     -5.774680     -5.478170
  N       2.973300     -5.740783     -6.843005
  C       3.451458     -4.504137     -6.941225
  C       4.716499     -2.671427     -7.917775
  C       4.313223     -4.011742     -7.979705
  C       4.844813     -4.700000     -9.101017
  C       5.643587     -3.911758     -9.896787
  S       5.749101     -2.266402     -9.261197
  C       6.346276     -4.264436    -11.102118
  C       7.239308     -3.508812    -11.832159
  C       7.769520     -4.156380    -12.978733
  C       7.268725     -5.445758    -13.123881
  S       6.124120     -5.825709    -11.847808
  C       7.542425     -6.467310    -14.107949
  C       7.243887     -7.801780    -14.005919
  C       7.593088     -8.572722    -15.156936
  C       8.177536     -7.769754    -16.176144
  S       8.284166     -6.091000    -15.671332
  C       8.555229     -8.273173    -17.423133
  C       8.346844     -9.654321    -17.639368
  C       7.762271    -10.458853    -16.620397
  C       7.387116     -9.955537    -15.370714
  C       8.705352    -10.432597    -18.795581
  C       8.402646    -11.748234    -18.662871
  S       7.665101    -12.141318    -17.128204
  C       9.124265     -7.428162    -18.478189
  C       8.717298     -7.329848    -19.784946
  C       9.523301     -6.425972    -20.525841
  C      10.542113     -5.830818    -19.836752
  S      10.518479     -6.401902    -18.189140
  C       6.818153    -10.794449    -14.312299
  C       7.217767    -10.876157    -13.001496
  C       6.409042    -11.771971    -12.254653
  C       5.394538    -12.376256    -12.942560
  S       5.427461    -11.826329    -14.596874
  H       2.951877      3.523241     -1.863260
  C       4.258187      4.924555     -4.057735
  H       3.858714      5.294376     -5.011778
  H       3.797257      5.533605     -3.271348
  C       5.783119      5.120425     -4.035509
  H       6.044695      6.174212     -4.183817
  H       6.267210      4.536567     -4.826603
  H       6.201834      4.792577     -3.077788
  H       4.553886      2.656052     -5.806401
  H       2.512707     -1.403753     -4.039329
  H       4.645339     -5.746433     -9.299414
  H       7.522902     -2.505913    -11.536539
  C       8.777255     -3.513888    -13.906243
  H       8.314754     -3.354925    -14.890209
  H       9.603077     -4.214859    -14.079286
  C       9.346775     -2.181582    -13.408531
  H       8.565799     -1.419268    -13.310727
  H      10.091008     -1.803849    -14.117057
  H       9.836133     -2.294590    -12.434622
  H       6.779275     -8.235131    -13.129775
  H       9.182546    -10.010409    -19.670361
  H       8.570661    -12.537396    -19.384146
  H       7.867001     -7.858003    -20.198043
  F       9.285472     -6.170410    -21.828156
  C      11.518879     -4.809286    -20.335518
  H      11.409510     -4.759563    -21.424561
  H      12.546313     -5.142494    -20.138124
  C      11.304269     -3.414064    -19.724938
  H      10.295840     -3.047525    -19.943785
  H      12.028623     -2.698779    -20.130214
  H      11.423146     -3.438743    -18.635954
  H       8.064109    -10.341284    -12.588920
  F       6.639408    -12.011522    -10.948265
  C       4.413647    -13.389522    -12.435149
  H       3.388142    -13.059131    -12.646663
  H       4.513869    -13.420590    -11.344540
  C       4.632691    -14.794925    -13.020116
  H       4.522572    -14.789363    -14.110231
  H       3.904750    -15.502735    -12.608164
  H       5.639100    -15.158163    -12.786916
